0 112 
1 114 
2 120 
3 122 
4 119 
5 117 
6 115 
7 115 
8 108 
9 104 
10 99 
11 101 
12 101 
13 104 
14 101 
15 103 
16 102 
17 104 
18 105 
19 101 
20 98 
21 95 
22 92 
23 93 
24 92 
25 92 
26 91 
27 91 
28 92 
29 91 
30 93 
31 90 
32 87 
33 83 
34 81 
35 81 
36 80 
37 81 
38 78 
39 79 
40 78 
41 75 
42 74 
43 70 
44 69 
45 68 
46 68 
47 66 
48 63 
49 65 
50 63 
51 64 
52 63 
53 62 
54 59 
55 56 
56 52 
57 53 
58 51 
59 49 
60 49 
61 48 
62 45 
63 45 
64 41 
65 37 
66 35 
67 34 
68 29 
69 27 
70 27 
71 25 
72 24 
73 22 
74 20 
75 18 
76 16 
77 18 
78 16 
79 18 
80 14 
81 14 
82 12 
83 11 
84 12 
85 11 
86 11 
87 11 
88 11 
89 11 
90 10 
91 8 
92 8 
93 7 
94 3 
95 1 
96 0 
97 0 

